NAME: tsp20-15
TYPE: TSP
DIMENSION: 20
EDGE_WEIGHT_TYPE: EUC_2D
NODE_COORD_SECTION
0 37 33
1 8 80
2 93 49
3 77 88
4 49 60
5 97 66
6 99 82
7 67 48
8 1 49
9 2 13
10 24 60
11 49 43
12 62 37
13 14 31
14 89 41
15 35 67
16 66 27
17 20 40
18 87 25
19 85 76
EOF